NAME : EIL51A
TYPE : PDTSP
DIMENSION : 51
EDGE_WEIGHT_TYPE : EUC_2D
NODE_COORD_SECTION
1 37 52
2 49 49
3 52 64
4 20 26
5 40 30
6 21 47
7 17 63
8 31 62
9 52 33
10 51 21
11 42 41
12 31 32
13 5 25
14 12 42
15 36 16
16 52 41
17 27 23
18 17 33
19 13 13
20 57 58
21 62 42
22 42 57
23 16 57
24 8 52
25 7 38
26 27 68
27 30 48
28 43 67
29 58 48
30 58 27
31 37 69
32 38 46
33 46 10
34 61 33
35 62 63
36 63 69
37 32 22
38 45 35
39 59 15
40 5 6
41 10 17
42 21 10
43 5 64
44 30 15
45 39 10
46 32 39
47 25 32
48 25 55
49 48 28
50 56 37
51 30 40
PICKUP_AND_DELIVERY_SECTION
1 0 0 0 0 0 0
2 0 0 0 0 32 0
3 0 0 0 0 0 28
4 0 0 0 0 0 44
5 0 0 0 0 0 37
6 0 0 0 0 26 0
7 0 0 0 0 24 0
8 0 0 0 0 31 0
9 0 0 0 0 0 45
10 0 0 0 0 0 33
11 0 0 0 0 0 49
12 0 0 0 0 0 38
13 0 0 0 0 0 40
14 0 0 0 0 0 43
15 0 0 0 0 0 42
16 0 0 0 0 50 0
17 0 0 0 0 18 0
18 0 0 0 0 0 17
19 0 0 0 0 47 0
20 0 0 0 0 0 34
21 0 0 0 0 0 29
22 0 0 0 0 35 0
23 0 0 0 0 48 0
24 0 0 0 0 0 7
25 0 0 0 0 0 41
26 0 0 0 0 0 6
27 0 0 0 0 0 36
28 0 0 0 0 3 0
29 0 0 0 0 21 0
30 0 0 0 0 39 0
31 0 0 0 0 0 8
32 0 0 0 0 0 2
33 0 0 0 0 10 0
34 0 0 0 0 20 0
35 0 0 0 0 0 22
36 0 0 0 0 27 0
37 0 0 0 0 5 0
38 0 0 0 0 12 0
39 0 0 0 0 0 30
40 0 0 0 0 13 0
41 0 0 0 0 25 0
42 0 0 0 0 15 0
43 0 0 0 0 14 0
44 0 0 0 0 4 0
45 0 0 0 0 9 0
46 0 0 0 0 51 0
47 0 0 0 0 0 19
48 0 0 0 0 0 23
49 0 0 0 0 11 0
50 0 0 0 0 0 16
51 0 0 0 0 0 46
DEPOT_SECTION
1 
-1
EOF
